Route 1: 20 24 29 30 27 22 21 6 32 34 36 37 38 39 28 26 23 17 18 19 16 14 12 15 13 25 9 10 11 8 5 2 75 93
Route 2: 63 67 62 74 72 61 64 66 69 68 65 49 55 54 53 56 58 60 59 57 40 44 46 41 42 45 51 50 31 35 33 52 47 43 48
Route 3: 89 7 1 99 100 97 92 94 95 98 3 4 91 88 84 82 83 86 85 76 71 70 73 80 79 81 78 77 96 87 90
Vehicles: 3
Distance: 672.72
